\* Optimil Team *\
Maximize
OBJ: 2.8 100_F + 3.2 101_F + 2.2 102_F + 1.5 103_F + 0.2 104_F + 2.5 105_F
 + 0.8 106_F + 0.8 107_F + 0.2 108_F + 0.2 110_F + 1.5 111_F + 1.5 113_F
 + 117_F + 3.8 118_F + 2 119_F + 8 11_F + 2.2 122_F + 4 123_F + 0.8 125_F
 + 3.8 126_F + 2 128_F + 129_F + 1.5 12_F + 2.5 131_F + 2 133_F + 1.5 134_F
 + 135_F + 3.5 137_F + 1.8 138_F + 2.2 139_F + 1.8 141_F + 0.5 142_F + 143_F
 + 144_F + 0.2 146_F + 2 147_F + 1.5 148_F + 2 14_F + 5.8 150_F + 2.8 151_F
 + 152_F + 0.8 153_F + 0.8 157_F + 158_F + 3.8 159_F + 0.5 15_F + 2.2 160_F
 + 2 161_F + 2 162_F + 0.8 163_F + 2.8 164_F + 0.2 165_F + 7 166_F + 2.5 168_F
 + 0.5 16_F + 4.8 171_F + 2.8 172_F + 0.2 174_F + 0.8 175_F + 1.5 176_F
 + 0.2 179_F + 3.2 17_F + 2 180_F + 5.2 181_F + 6.2 182_F + 3.2 183_F
 + 0.2 184_F + 4.8 185_F + 7.8 187_F + 0.5 188_F + 1.5 18_F + 8.8 191_F
 + 7 192_F + 193_F + 0.5 194_F + 0.5 195_F + 3 197_F + 1.8 198_F + 2.5 199_F
 + 2.5 19_F + 0.5 200_F + 0.5 202_F + 2.2 203_F + 0.2 204_F + 0.2 205_F
 + 2.2 206_F + 0.2 207_F + 5.8 208_F + 11 210_F + 211_F + 4.2 212_F
 + 3.2 214_F + 9 215_F + 5 217_F + 7.8 218_F + 8 219_F + 3.5 21_F + 221_F
 + 0.8 222_F + 2 224_F + 3 225_F + 0.2 226_F + 0.5 22_F + 3.2 233_F
 + 0.5 234_F + 3.5 235_F + 238_F + 1.2 239_F + 0.8 241_F + 1.8 242_F
 + 4.5 243_F + 0.5 244_F + 0.2 245_F + 1.8 246_F + 1.5 247_F + 3.8 248_F
 + 0.2 249_F + 3.5 24_F + 1.2 251_F + 5.8 252_F + 0.8 254_F + 4 255_F
 + 2 256_F + 3.8 258_F + 0.8 260_F + 4.2 262_F + 1.2 265_F + 2.5 266_F
 + 3.8 267_F + 0.2 268_F + 1.2 269_F + 1.2 270_F + 3.5 271_F + 273_F
 + 0.2 274_F + 0.2 275_F + 276_F + 0.2 277_F + 6.8 278_F + 0.5 279_F
 + 2.2 280_F + 0.2 282_F + 5 283_F + 1.8 285_F + 2.5 286_F + 4.2 287_F
 + 1.5 288_F + 0.8 289_F + 0.5 28_F + 290_F + 4 291_F + 2.5 293_F + 3.8 294_F
 + 2.8 295_F + 3.8 297_F - 0.2 298_F + 3 29_F + 301_F + 2.8 302_F + 303_F
 + 6.5 304_F + 0.2 305_F + 0.2 306_F + 4 307_F + 3.5 30_F + 2 310_F
 + 2.2 313_F + 0.5 315_F + 5.5 319_F + 5.2 31_F + 3 320_F + 4 321_F
 + 0.8 323_F + 2.2 325_F + 2.2 328_F + 0.5 329_F + 1.8 330_F + 3.5 331_F
 + 1.8 332_F + 0.5 333_F + 3.8 336_F + 0.5 337_F + 5.2 338_F + 3.2 340_F
 + 0.5 341_F + 7 342_F + 3 343_F + 0.2 344_F + 345_F + 3.8 346_F + 1.5 347_F
 + 2.2 349_F + 0.5 34_F - 0.5 353_F + 0.8 354_F - 0.5 356_F + 0.5 358_F
 + 0.8 359_F + 0.5 35_F + 2.8 363_F + 3 364_F + 0.2 365_F + 2 366_F
 + 1.8 368_F + 2.2 369_F + 2.5 36_F + 4.5 370_F + 3.8 371_F + 1.2 373_F
 + 0.2 374_F + 0.2 375_F + 3.5 376_F + 4.5 377_F + 4.2 378_F + 0.5 379_F
 + 0.8 37_F + 5.2 380_F + 5.5 381_F + 0.2 382_F + 6.8 388_F + 389_F + 1.5 38_F
 + 4.2 390_F + 2.8 391_F + 5.8 392_F + 0.2 393_F + 0.2 394_F + 2.8 395_F
 + 4.8 396_F + 0.5 397_F + 1.5 399_F + 0.2 39_F + 1.2 3_F + 1.8 401_F + 402_F
 + 403_F + 0.5 404_F + 1.8 405_F + 1.8 407_F + 4.5 409_F + 3.5 410_F + 2 411_F
 + 1.8 414_F + 1.5 415_F + 0.8 416_F + 3 417_F + 0.5 41_F + 420_F + 421_F
 + 0.8 422_F + 2.5 423_F + 5 428_F + 2 42_F + 0.8 430_F + 2.5 431_F
 + 2.5 432_F + 0.8 434_F + 0.2 435_F + 2.8 437_F + 4 438_F + 0.2 439_F + 441_F
 + 0.8 442_F + 3.8 443_F + 0.2 444_F + 3.8 445_F + 0.8 446_F + 3 447_F
 + 4.5 448_F + 44_F + 451_F + 4 453_F + 0.2 454_F + 4.5 455_F + 0.2 456_F
 + 6.2 457_F + 3.2 458_F + 0.2 459_F + 0.2 45_F + 10.5 460_F + 1.5 461_F
 + 5.2 463_F + 0.5 465_F + 3.5 466_F + 1.8 467_F + 5 468_F + 1.5 469_F
 - 0.5 46_F + 1.5 470_F + 3.2 471_F + 0.5 472_F + 2.2 475_F + 2.5 476_F
 + 3.2 47_F + 0.2 481_F + 2.2 486_F + 2 487_F + 4.2 488_F + 0.2 489_F + 490_F
 + 1.2 491_F + 2.5 493_F + 3.8 494_F + 2.2 496_F + 3.8 498_F + 1.8 49_F
 + 0.8 4_F + 0.5 500_F + 2.8 501_F + 3.5 502_F + 2.5 503_F + 3.8 505_F + 507_F
 + 3.5 508_F + 0.2 510_F + 0.2 512_F + 516_F + 0.8 517_F + 0.5 518_F
 + 2.2 519_F + 0.2 520_F + 0.5 523_F + 0.8 525_F + 3 526_F + 0.5 528_F
 + 2.5 529_F + 2 532_F + 0.3 533_F + 534_F + 1.5 537_F + 0.2 53_F + 0.5 541_F
 - 0.5 542_F + 544_F + 2.2 54_F + 3.2 55_F + 2.2 57_F + 1.5 58_F + 3 59_F
 + 0.8 5_F + 0.2 60_F + 0.8 61_F + 0.5 63_F + 2.5 65_F + 7.5 67_F + 4 68_F
 + 1.5 69_F + 0.2 6_F + 1.8 70_F + 4 75_F + 0.5 78_F + 0.8 79_F + 0.5 80_F
 + 82_F + 2.8 83_F + 2.5 84_F + 2.8 85_F + 3.2 90_F + 4.2 91_F + 92_F
 + 3.2 93_F + 4.2 94_F + 0.8 96_F + 4 97_F + 0.2 98_F
Subject To
_C1: 54 100_B + 54 100_F + 54 101_B + 54 101_F + 50 102_B + 50 102_F
 + 62 103_B + 62 103_F + 60 104_B + 60 104_F + 59 105_B + 59 105_F + 58 106_B
 + 58 106_F + 55 107_B + 55 107_F + 50 108_B + 50 108_F + 44 109_B + 44 109_F
 + 45 10_B + 45 10_F + 67 110_B + 67 110_F + 55 111_B + 55 111_F + 49 112_B
 + 49 112_F + 70 113_B + 70 113_F + 70 114_B + 70 114_F + 64 115_B + 64 115_F
 + 59 116_B + 59 116_F + 56 117_B + 56 117_F + 50 118_B + 50 118_F + 50 119_B
 + 50 119_F + 110 11_B + 110 11_F + 45 120_B + 45 120_F + 45 121_B + 45 121_F
 + 55 122_B + 55 122_F + 56 123_B + 56 123_F + 50 124_B + 50 124_F + 50 125_B
 + 50 125_F + 45 126_B + 45 126_F + 44 127_B + 44 127_F + 41 128_B + 41 128_F
 + 58 129_B + 58 129_F + 93 12_B + 93 12_F + 45 130_B + 45 130_F + 50 131_B
 + 50 131_F + 44 132_B + 44 132_F + 68 133_B + 68 133_F + 67 134_B + 67 134_F
 + 58 135_B + 58 135_F + 53 136_B + 53 136_F + 55 137_B + 55 137_F + 53 138_B
 + 53 138_F + 49 139_B + 49 139_F + 44 13_B + 44 13_F + 44 140_B + 44 140_F
 + 61 141_B + 61 141_F + 55 142_B + 55 142_F + 55 143_B + 55 143_F + 55 144_B
 + 55 144_F + 49 145_B + 49 145_F + 57 146_B + 57 146_F + 58 147_B + 58 147_F
 + 56 148_B + 56 148_F + 40 149_B + 40 149_F + 50 14_B + 50 14_F + 80 150_B
 + 80 150_F + 77 151_B + 77 151_F + 65 152_B + 65 152_F + 63 153_B + 63 153_F
 + 54 154_B + 54 154_F + 50 155_B + 50 155_F + 50 156_B + 50 156_F + 44 157_B
 + 44 157_F + 45 158_B + 45 158_F + 60 159_B + 60 159_F + 73 15_B + 73 15_F
 + 55 160_B + 55 160_F + 54 161_B + 54 161_F + 50 162_B + 50 162_F + 45 163_B
 + 45 163_F + 46 164_B + 46 164_F + 43 165_B + 43 165_F + 89 166_B + 89 166_F
 + 58 167_B + 58 167_F + 50 168_B + 50 168_F + 44 169_B + 44 169_F + 68 16_B
 + 68 16_F + 44 170_B + 44 170_F + 71 171_B + 71 171_F + 59 172_B + 59 172_F
 + 53 173_B + 53 173_F + 53 174_B + 53 174_F + 53 175_B + 53 175_F + 50 176_B
 + 50 176_F + 44 177_B + 44 177_F + 44 178_B + 44 178_F + 44 179_B + 44 179_F
 + 59 17_B + 59 17_F + 45 180_B + 45 180_F + 69 181_B + 69 181_F + 71 182_B
 + 71 182_F + 65 183_B + 65 183_F + 53 184_B + 53 184_F + 55 185_B + 55 185_F
 + 53 186_B + 53 186_F + 95 187_B + 95 187_F + 53 188_B + 53 188_F + 58 189_B
 + 58 189_F + 53 18_B + 53 18_F + 45 190_B + 45 190_F + 125 191_B + 125 191_F
 + 116 192_B + 116 192_F + 63 193_B + 63 193_F + 63 194_B + 63 194_F
 + 58 195_B + 58 195_F + 58 196_B + 58 196_F + 55 197_B + 55 197_F + 55 198_B
 + 55 198_F + 54 199_B + 54 199_F + 49 19_B + 49 19_F + 53 1_B + 53 1_F
 + 54 200_B + 54 200_F + 45 201_B + 45 201_F + 63 202_B + 63 202_F + 60 203_B
 + 60 203_F + 59 204_B + 59 204_F + 54 205_B + 54 205_F + 55 206_B + 55 206_F
 + 54 207_B + 54 207_F + 55 208_B + 55 208_F + 50 209_B + 50 209_F + 44 20_B
 + 44 20_F + 122 210_B + 122 210_F + 95 211_B + 95 211_F + 61 212_B + 61 212_F
 + 48 213_B + 48 213_F + 121 214_B + 121 214_F + 99 215_B + 99 215_F
 + 93 216_B + 93 216_F + 85 217_B + 85 217_F + 78 218_B + 78 218_F + 75 219_B
 + 75 219_F + 46 21_B + 46 21_F + 52 220_B + 52 220_F + 53 221_B + 53 221_F
 + 53 222_B + 53 222_F + 53 223_B + 53 223_F + 54 224_B + 54 224_F + 54 225_B
 + 54 225_F + 54 226_B + 54 226_F + 48 227_B + 48 227_F + 49 228_B + 49 228_F
 + 49 229_B + 49 229_F + 44 22_B + 44 22_F + 49 230_B + 49 230_F + 48 231_B
 + 48 231_F + 85 232_B + 85 232_F + 84 233_B + 84 233_F + 45 234_B + 45 234_F
 + 56 235_B + 56 235_F + 49 236_B + 49 236_F + 49 237_B + 49 237_F + 84 238_B
 + 84 238_F + 76 239_B + 76 239_F + 44 23_B + 44 23_F + 69 240_B + 69 240_F
 + 64 241_B + 64 241_F + 64 242_B + 64 242_F + 62 243_B + 62 243_F + 53 244_B
 + 53 244_F + 49 245_B + 49 245_F + 50 246_B + 50 246_F + 48 247_B + 48 247_F
 + 50 248_B + 50 248_F + 44 249_B + 44 249_F + 45 24_B + 45 24_F + 44 250_B
 + 44 250_F + 54 251_B + 54 251_F + 50 252_B + 50 252_F + 44 253_B + 44 253_F
 + 44 254_B + 44 254_F + 45 255_B + 45 255_F + 44 256_B + 44 256_F + 45 257_B
 + 45 257_F + 44 258_B + 44 258_F + 44 259_B + 44 259_F + 45 25_B + 45 25_F
 + 53 260_B + 53 260_F + 50 261_B + 50 261_F + 50 262_B + 50 262_F + 44 263_B
 + 44 263_F + 40 264_B + 40 264_F + 61 265_B + 61 265_F + 59 266_B + 59 266_F
 + 54 267_B + 54 267_F + 48 268_B + 48 268_F + 50 269_B + 50 269_F + 54 26_B
 + 54 26_F + 50 270_B + 50 270_F + 45 271_B + 45 271_F + 44 272_B + 44 272_F
 + 45 273_B + 45 273_F + 44 274_B + 44 274_F + 45 275_B + 45 275_F + 45 276_B
 + 45 276_F + 40 277_B + 40 277_F + 71 278_B + 71 278_F + 53 279_B + 53 279_F
 + 44 27_B + 44 27_F + 45 280_B + 45 280_F + 40 281_B + 40 281_F + 62 282_B
 + 62 282_F + 60 283_B + 60 283_F + 53 284_B + 53 284_F + 54 285_B + 54 285_F
 + 49 286_B + 49 286_F + 50 287_B + 50 287_F + 45 288_B + 45 288_F + 45 289_B
 + 45 289_F + 57 28_B + 57 28_F + 45 290_B + 45 290_F + 50 291_B + 50 291_F
 + 43 292_B + 43 292_F + 45 293_B + 45 293_F + 45 294_B + 45 294_F + 45 295_B
 + 45 295_F + 40 296_B + 40 296_F + 44 297_B + 44 297_F + 57 298_B + 57 298_F
 + 44 299_B + 44 299_F + 59 29_B + 59 29_F + 54 2_B + 54 2_F + 53 300_B
 + 53 300_F + 48 301_B + 48 301_F + 49 302_B + 49 302_F + 55 303_B + 55 303_F
 + 52 304_B + 52 304_F + 49 305_B + 49 305_F + 48 306_B + 48 306_F + 45 307_B
 + 45 307_F + 44 308_B + 44 308_F + 44 309_B + 44 309_F + 55 30_B + 55 30_F
 + 44 310_B + 44 310_F + 40 311_B + 40 311_F + 60 312_B + 60 312_F + 59 313_B
 + 59 313_F + 50 314_B + 50 314_F + 48 315_B + 48 315_F + 45 316_B + 45 316_F
 + 44 317_B + 44 317_F + 44 318_B + 44 318_F + 45 319_B + 45 319_F + 56 31_B
 + 56 31_F + 63 320_B + 63 320_F + 58 321_B + 58 321_F + 53 322_B + 53 322_F
 + 53 323_B + 53 323_F + 48 324_B + 48 324_F + 49 325_B + 49 325_F + 44 326_B
 + 44 326_F + 44 327_B + 44 327_F + 45 328_B + 45 328_F + 55 329_B + 55 329_F
 + 49 32_B + 49 32_F + 53 330_B + 53 330_F + 55 331_B + 55 331_F + 55 332_B
 + 55 332_F + 54 333_B + 54 333_F + 55 334_B + 55 334_F + 49 335_B + 49 335_F
 + 50 336_B + 50 336_F + 49 337_B + 49 337_F + 110 338_B + 110 338_F
 + 45 339_B + 45 339_F + 45 33_B + 45 33_F + 55 340_B + 55 340_F + 44 341_B
 + 44 341_F + 97 342_B + 97 342_F + 88 343_B + 88 343_F + 84 344_B + 84 344_F
 + 73 345_B + 73 345_F + 61 346_B + 61 346_F + 54 347_B + 54 347_F + 49 348_B
 + 49 348_F + 50 349_B + 50 349_F + 45 34_B + 45 34_F + 49 350_B + 49 350_F
 + 45 351_B + 45 351_F + 45 352_B + 45 352_F + 47 353_B + 47 353_F + 44 354_B
 + 44 354_F + 44 355_B + 44 355_F + 43 356_B + 43 356_F + 44 357_B + 44 357_F
 + 44 358_B + 44 358_F + 44 359_B + 44 359_F + 44 35_B + 44 35_F + 40 360_B
 + 40 360_F + 40 361_B + 40 361_F + 62 362_B + 62 362_F + 62 363_B + 62 363_F
 + 59 364_B + 59 364_F + 49 365_B + 49 365_F + 49 366_B + 49 366_F + 44 367_B
 + 44 367_F + 57 368_B + 57 368_F + 58 369_B + 58 369_F + 59 36_B + 59 36_F
 + 55 370_B + 55 370_F + 49 371_B + 49 371_F + 48 372_B + 48 372_F + 48 373_B
 + 48 373_F + 45 374_B + 45 374_F + 45 375_B + 45 375_F + 49 376_B + 49 376_F
 + 45 377_B + 45 377_F + 45 378_B + 45 378_F + 44 379_B + 44 379_F + 49 37_B
 + 49 37_F + 45 380_B + 45 380_F + 45 381_B + 45 381_F + 44 382_B + 44 382_F
 + 40 383_B + 40 383_F + 40 384_B + 40 384_F + 70 385_B + 70 385_F + 60 386_B
 + 60 386_F + 44 387_B + 44 387_F + 50 388_B + 50 388_F + 69 389_B + 69 389_F
 + 45 38_B + 45 38_F + 69 390_B + 69 390_F + 65 391_B + 65 391_F + 59 392_B
 + 59 392_F + 53 393_B + 53 393_F + 48 394_B + 48 394_F + 49 395_B + 49 395_F
 + 50 396_B + 50 396_F + 45 397_B + 45 397_F + 44 398_B + 44 398_F + 62 399_B
 + 62 399_F + 44 39_B + 44 39_F + 54 3_B + 54 3_F + 45 400_B + 45 400_F
 + 60 401_B + 60 401_F + 54 402_B + 54 402_F + 50 403_B + 50 403_F + 50 404_B
 + 50 404_F + 50 405_B + 50 405_F + 44 406_B + 44 406_F + 44 407_B + 44 407_F
 + 40 408_B + 40 408_F + 73 409_B + 73 409_F + 44 40_B + 44 40_F + 62 410_B
 + 62 410_F + 51 411_B + 51 411_F + 44 412_B + 44 412_F + 40 413_B + 40 413_F
 + 55 414_B + 55 414_F + 54 415_B + 54 415_F + 49 416_B + 49 416_F + 50 417_B
 + 50 417_F + 49 418_B + 49 418_F + 49 419_B + 49 419_F + 44 41_B + 44 41_F
 + 45 420_B + 45 420_F + 59 421_B + 59 421_F + 53 422_B + 53 422_F + 45 423_B
 + 45 423_F + 44 427_B + 44 427_F + 60 428_B + 60 428_F + 44 429_B + 44 429_F
 + 46 42_B + 46 42_F + 49 430_B + 49 430_F + 73 431_B + 73 431_F + 55 432_B
 + 55 432_F + 49 433_B + 49 433_F + 54 434_B + 54 434_F + 53 435_B + 53 435_F
 + 44 436_B + 44 436_F + 57 437_B + 57 437_F + 54 438_B + 54 438_F + 49 439_B
 + 49 439_F + 44 43_B + 44 43_F + 48 440_B + 48 440_F + 53 441_B + 53 441_F
 + 60 442_B + 60 442_F + 55 443_B + 55 443_F + 43 444_B + 43 444_F + 46 445_B
 + 46 445_F + 44 446_B + 44 446_F + 47 447_B + 47 447_F + 64 448_B + 64 448_F
 + 44 449_B + 44 449_F + 57 44_B + 57 44_F + 44 450_B + 44 450_F + 57 451_B
 + 57 451_F + 44 452_B + 44 452_F + 53 453_B + 53 453_F + 44 454_B + 44 454_F
 + 45 455_B + 45 455_F + 48 456_B + 48 456_F + 74 457_B + 74 457_F + 44 458_B
 + 44 458_F + 48 459_B + 48 459_F + 53 45_B + 53 45_F + 74 460_B + 74 460_F
 + 66 461_B + 66 461_F + 53 462_B + 53 462_F + 65 463_B + 65 463_F + 44 464_B
 + 44 464_F + 53 465_B + 53 465_F + 59 466_B + 59 466_F + 44 467_B + 44 467_F
 + 51 468_B + 51 468_F + 57 469_B + 57 469_F + 49 46_B + 49 46_F + 46 470_B
 + 46 470_F + 45 471_B + 45 471_F + 48 472_B + 48 472_F + 48 473_B + 48 473_F
 + 44 474_B + 44 474_F + 45 475_B + 45 475_F + 50 476_B + 50 476_F + 44 477_B
 + 44 477_F + 44 478_B + 44 478_F + 44 479_B + 44 479_F + 46 47_B + 46 47_F
 + 44 480_B + 44 480_F + 44 481_B + 44 481_F + 44 482_B + 44 482_F + 48 483_B
 + 48 483_F + 40 484_B + 40 484_F + 44 485_B + 44 485_F + 49 486_B + 49 486_F
 + 58 487_B + 58 487_F + 94 488_B + 94 488_F + 54 489_B + 54 489_F + 40 48_B
 + 40 48_F + 50 490_B + 50 490_F + 44 491_B + 44 491_F + 58 492_B + 58 492_F
 + 44 493_B + 44 493_F + 45 494_B + 45 494_F + 45 495_B + 45 495_F + 67 496_B
 + 67 496_F + 49 497_B + 49 497_F + 45 498_B + 45 498_F + 49 499_B + 49 499_F
 + 65 49_B + 65 49_F + 51 4_B + 51 4_F + 54 500_B + 54 500_F + 59 501_B
 + 59 501_F + 60 502_B + 60 502_F + 45 503_B + 45 503_F + 45 504_B + 45 504_F
 + 61 505_B + 61 505_F + 50 506_B + 50 506_F + 45 507_B + 45 507_F + 55 508_B
 + 55 508_F + 45 509_B + 45 509_F + 58 50_B + 58 50_F + 48 510_B + 48 510_F
 + 53 511_B + 53 511_F + 59 512_B + 59 512_F + 45 513_B + 45 513_F + 58 514_B
 + 58 514_F + 54 515_B + 54 515_F + 49 516_B + 49 516_F + 54 517_B + 54 517_F
 + 54 518_B + 54 518_F + 45 519_B + 45 519_F + 54 51_B + 54 51_F + 54 520_B
 + 54 520_F + 45 521_B + 45 521_F + 45 522_B + 45 522_F + 73 523_B + 73 523_F
 + 54 524_B + 54 524_F + 64 525_B + 64 525_F + 46 526_B + 46 526_F + 50 527_B
 + 50 527_F + 50 528_B + 50 528_F + 45 529_B + 45 529_F + 54 52_B + 54 52_F
 + 44 530_B + 44 530_F + 45 531_B + 45 531_F + 45 532_B + 45 532_F + 45 533_B
 + 45 533_F + 45 534_B + 45 534_F + 45 535_B + 45 535_F + 40 536_B + 40 536_F
 + 45 537_B + 45 537_F + 45 538_B + 45 538_F + 45 539_B + 45 539_F + 50 53_B
 + 50 53_F + 45 540_B + 45 540_F + 45 541_B + 45 541_F + 40 542_B + 40 542_F
 + 40 543_B + 40 543_F + 45 544_B + 45 544_F + 50 54_B + 50 54_F + 49 55_B
 + 49 55_F + 44 56_B + 44 56_F + 45 57_B + 45 57_F + 50 58_B + 50 58_F
 + 49 59_B + 49 59_F + 50 5_B + 50 5_F + 44 60_B + 44 60_F + 45 61_B + 45 61_F
 + 44 62_B + 44 62_F + 44 63_B + 44 63_F + 44 64_B + 44 64_F + 41 65_B
 + 41 65_F + 40 66_B + 40 66_F + 78 67_B + 78 67_F + 63 68_B + 63 68_F
 + 54 69_B + 54 69_F + 50 6_B + 50 6_F + 49 70_B + 49 70_F + 44 71_B + 44 71_F
 + 44 72_B + 44 72_F + 44 73_B + 44 73_F + 44 74_B + 44 74_F + 73 75_B
 + 73 75_F + 63 76_B + 63 76_F + 59 77_B + 59 77_F + 48 78_B + 48 78_F
 + 50 79_B + 50 79_F + 50 7_B + 50 7_F + 48 80_B + 48 80_F + 49 81_B + 49 81_F
 + 49 82_B + 49 82_F + 50 83_B + 50 83_F + 50 84_B + 50 84_F + 45 85_B
 + 45 85_F + 44 86_B + 44 86_F + 43 87_B + 43 87_F + 44 88_B + 44 88_F
 + 40 89_B + 40 89_F + 44 8_B + 44 8_F + 67 90_B + 67 90_F + 62 91_B + 62 91_F
 + 54 92_B + 54 92_F + 46 93_B + 46 93_F + 45 94_B + 45 94_F + 44 95_B
 + 44 95_F + 60 96_B + 60 96_F + 60 97_B + 60 97_F + 55 98_B + 55 98_F
 + 55 99_B + 55 99_F + 45 9_B + 45 9_F <= 2006
_C2: 100_F + 101_F + 102_F + 103_F + 104_F + 105_F + 106_F + 107_F + 108_F
 + 109_F + 10_F + 110_F + 111_F + 112_F + 113_F + 114_F + 115_F + 116_F
 + 117_F + 118_F + 119_F + 11_F + 120_F + 121_F + 122_F + 123_F + 124_F
 + 125_F + 126_F + 127_F + 128_F + 129_F + 12_F + 130_F + 131_F + 132_F
 + 133_F + 134_F + 135_F + 136_F + 137_F + 138_F + 139_F + 13_F + 140_F
 + 141_F + 142_F + 143_F + 144_F + 145_F + 146_F + 147_F + 148_F + 149_F
 + 14_F + 150_F + 151_F + 152_F + 153_F + 154_F + 155_F + 156_F + 157_F
 + 158_F + 159_F + 15_F + 160_F + 161_F + 162_F + 163_F + 164_F + 165_F
 + 166_F + 167_F + 168_F + 169_F + 16_F + 170_F + 171_F + 172_F + 173_F
 + 174_F + 175_F + 176_F + 177_F + 178_F + 179_F + 17_F + 180_F + 181_F
 + 182_F + 183_F + 184_F + 185_F + 186_F + 187_F + 188_F + 189_F + 18_F
 + 190_F + 191_F + 192_F + 193_F + 194_F + 195_F + 196_F + 197_F + 198_F
 + 199_F + 19_F + 1_F + 200_F + 201_F + 202_F + 203_F + 204_F + 205_F + 206_F
 + 207_F + 208_F + 209_F + 20_F + 210_F + 211_F + 212_F + 213_F + 214_F
 + 215_F + 216_F + 217_F + 218_F + 219_F + 21_F + 220_F + 221_F + 222_F
 + 223_F + 224_F + 225_F + 226_F + 227_F + 228_F + 229_F + 22_F + 230_F
 + 231_F + 232_F + 233_F + 234_F + 235_F + 236_F + 237_F + 238_F + 239_F
 + 23_F + 240_F + 241_F + 242_F + 243_F + 244_F + 245_F + 246_F + 247_F
 + 248_F + 249_F + 24_F + 250_F + 251_F + 252_F + 253_F + 254_F + 255_F
 + 256_F + 257_F + 258_F + 259_F + 25_F + 260_F + 261_F + 262_F + 263_F
 + 264_F + 265_F + 266_F + 267_F + 268_F + 269_F + 26_F + 270_F + 271_F
 + 272_F + 273_F + 274_F + 275_F + 276_F + 277_F + 278_F + 279_F + 27_F
 + 280_F + 281_F + 282_F + 283_F + 284_F + 285_F + 286_F + 287_F + 288_F
 + 289_F + 28_F + 290_F + 291_F + 292_F + 293_F + 294_F + 295_F + 296_F
 + 297_F + 298_F + 299_F + 29_F + 2_F + 300_F + 301_F + 302_F + 303_F + 304_F
 + 305_F + 306_F + 307_F + 308_F + 309_F + 30_F + 310_F + 311_F + 312_F
 + 313_F + 314_F + 315_F + 316_F + 317_F + 318_F + 319_F + 31_F + 320_F
 + 321_F + 322_F + 323_F + 324_F + 325_F + 326_F + 327_F + 328_F + 329_F
 + 32_F + 330_F + 331_F + 332_F + 333_F + 334_F + 335_F + 336_F + 337_F
 + 338_F + 339_F + 33_F + 340_F + 341_F + 342_F + 343_F + 344_F + 345_F
 + 346_F + 347_F + 348_F + 349_F + 34_F + 350_F + 351_F + 352_F + 353_F
 + 354_F + 355_F + 356_F + 357_F + 358_F + 359_F + 35_F + 360_F + 361_F
 + 362_F + 363_F + 364_F + 365_F + 366_F + 367_F + 368_F + 369_F + 36_F
 + 370_F + 371_F + 372_F + 373_F + 374_F + 375_F + 376_F + 377_F + 378_F
 + 379_F + 37_F + 380_F + 381_F + 382_F + 383_F + 384_F + 385_F + 386_F
 + 387_F + 388_F + 389_F + 38_F + 390_F + 391_F + 392_F + 393_F + 394_F
 + 395_F + 396_F + 397_F + 398_F + 399_F + 39_F + 3_F + 400_F + 401_F + 402_F
 + 403_F + 404_F + 405_F + 406_F + 407_F + 408_F + 409_F + 40_F + 410_F
 + 411_F + 412_F + 413_F + 414_F + 415_F + 416_F + 417_F + 418_F + 419_F
 + 41_F + 420_F + 421_F + 422_F + 423_F + 427_F + 428_F + 429_F + 42_F + 430_F
 + 431_F + 432_F + 433_F + 434_F + 435_F + 436_F + 437_F + 438_F + 439_F
 + 43_F + 440_F + 441_F + 442_F + 443_F + 444_F + 445_F + 446_F + 447_F
 + 448_F + 449_F + 44_F + 450_F + 451_F + 452_F + 453_F + 454_F + 455_F
 + 456_F + 457_F + 458_F + 459_F + 45_F + 460_F + 461_F + 462_F + 463_F
 + 464_F + 465_F + 466_F + 467_F + 468_F + 469_F + 46_F + 470_F + 471_F
 + 472_F + 473_F + 474_F + 475_F + 476_F + 477_F + 478_F + 479_F + 47_F
 + 480_F + 481_F + 482_F + 483_F + 484_F + 485_F + 486_F + 487_F + 488_F
 + 489_F + 48_F + 490_F + 491_F + 492_F + 493_F + 494_F + 495_F + 496_F
 + 497_F + 498_F + 499_F + 49_F + 4_F + 500_F + 501_F + 502_F + 503_F + 504_F
 + 505_F + 506_F + 507_F + 508_F + 509_F + 50_F + 510_F + 511_F + 512_F
 + 513_F + 514_F + 515_F + 516_F + 517_F + 518_F + 519_F + 51_F + 520_F
 + 521_F + 522_F + 523_F + 524_F + 525_F + 526_F + 527_F + 528_F + 529_F
 + 52_F + 530_F + 531_F + 532_F + 533_F + 534_F + 535_F + 536_F + 537_F
 + 538_F + 539_F + 53_F + 540_F + 541_F + 542_F + 543_F + 544_F + 54_F + 55_F
 + 56_F + 57_F + 58_F + 59_F + 5_F + 60_F + 61_F + 62_F + 63_F + 64_F + 65_F
 + 66_F + 67_F + 68_F + 69_F + 6_F + 70_F + 71_F + 72_F + 73_F + 74_F + 75_F
 + 76_F + 77_F + 78_F + 79_F + 7_F + 80_F + 81_F + 82_F + 83_F + 84_F + 85_F
 + 86_F + 87_F + 88_F + 89_F + 8_F + 90_F + 91_F + 92_F + 93_F + 94_F + 95_F
 + 96_F + 97_F + 98_F + 99_F + 9_F = 11
_C3: 100_B + 101_B + 102_B + 103_B + 104_B + 105_B + 106_B + 107_B + 108_B
 + 109_B + 10_B + 110_B + 111_B + 112_B + 113_B + 114_B + 115_B + 116_B
 + 117_B + 118_B + 119_B + 11_B + 120_B + 121_B + 122_B + 123_B + 124_B
 + 125_B + 126_B + 127_B + 128_B + 129_B + 12_B + 130_B + 131_B + 132_B
 + 133_B + 134_B + 135_B + 136_B + 137_B + 138_B + 139_B + 13_B + 140_B
 + 141_B + 142_B + 143_B + 144_B + 145_B + 146_B + 147_B + 148_B + 149_B
 + 14_B + 150_B + 151_B + 152_B + 153_B + 154_B + 155_B + 156_B + 157_B
 + 158_B + 159_B + 15_B + 160_B + 161_B + 162_B + 163_B + 164_B + 165_B
 + 166_B + 167_B + 168_B + 169_B + 16_B + 170_B + 171_B + 172_B + 173_B
 + 174_B + 175_B + 176_B + 177_B + 178_B + 179_B + 17_B + 180_B + 181_B
 + 182_B + 183_B + 184_B + 185_B + 186_B + 187_B + 188_B + 189_B + 18_B
 + 190_B + 191_B + 192_B + 193_B + 194_B + 195_B + 196_B + 197_B + 198_B
 + 199_B + 19_B + 1_B + 200_B + 201_B + 202_B + 203_B + 204_B + 205_B + 206_B
 + 207_B + 208_B + 209_B + 20_B + 210_B + 211_B + 212_B + 213_B + 214_B
 + 215_B + 216_B + 217_B + 218_B + 219_B + 21_B + 220_B + 221_B + 222_B
 + 223_B + 224_B + 225_B + 226_B + 227_B + 228_B + 229_B + 22_B + 230_B
 + 231_B + 232_B + 233_B + 234_B + 235_B + 236_B + 237_B + 238_B + 239_B
 + 23_B + 240_B + 241_B + 242_B + 243_B + 244_B + 245_B + 246_B + 247_B
 + 248_B + 249_B + 24_B + 250_B + 251_B + 252_B + 253_B + 254_B + 255_B
 + 256_B + 257_B + 258_B + 259_B + 25_B + 260_B + 261_B + 262_B + 263_B
 + 264_B + 265_B + 266_B + 267_B + 268_B + 269_B + 26_B + 270_B + 271_B
 + 272_B + 273_B + 274_B + 275_B + 276_B + 277_B + 278_B + 279_B + 27_B
 + 280_B + 281_B + 282_B + 283_B + 284_B + 285_B + 286_B + 287_B + 288_B
 + 289_B + 28_B + 290_B + 291_B + 292_B + 293_B + 294_B + 295_B + 296_B
 + 297_B + 298_B + 299_B + 29_B + 2_B + 300_B + 301_B + 302_B + 303_B + 304_B
 + 305_B + 306_B + 307_B + 308_B + 309_B + 30_B + 310_B + 311_B + 312_B
 + 313_B + 314_B + 315_B + 316_B + 317_B + 318_B + 319_B + 31_B + 320_B
 + 321_B + 322_B + 323_B + 324_B + 325_B + 326_B + 327_B + 328_B + 329_B
 + 32_B + 330_B + 331_B + 332_B + 333_B + 334_B + 335_B + 336_B + 337_B
 + 338_B + 339_B + 33_B + 340_B + 341_B + 342_B + 343_B + 344_B + 345_B
 + 346_B + 347_B + 348_B + 349_B + 34_B + 350_B + 351_B + 352_B + 353_B
 + 354_B + 355_B + 356_B + 357_B + 358_B + 359_B + 35_B + 360_B + 361_B
 + 362_B + 363_B + 364_B + 365_B + 366_B + 367_B + 368_B + 369_B + 36_B
 + 370_B + 371_B + 372_B + 373_B + 374_B + 375_B + 376_B + 377_B + 378_B
 + 379_B + 37_B + 380_B + 381_B + 382_B + 383_B + 384_B + 385_B + 386_B
 + 387_B + 388_B + 389_B + 38_B + 390_B + 391_B + 392_B + 393_B + 394_B
 + 395_B + 396_B + 397_B + 398_B + 399_B + 39_B + 3_B + 400_B + 401_B + 402_B
 + 403_B + 404_B + 405_B + 406_B + 407_B + 408_B + 409_B + 40_B + 410_B
 + 411_B + 412_B + 413_B + 414_B + 415_B + 416_B + 417_B + 418_B + 419_B
 + 41_B + 420_B + 421_B + 422_B + 423_B + 427_B + 428_B + 429_B + 42_B + 430_B
 + 431_B + 432_B + 433_B + 434_B + 435_B + 436_B + 437_B + 438_B + 439_B
 + 43_B + 440_B + 441_B + 442_B + 443_B + 444_B + 445_B + 446_B + 447_B
 + 448_B + 449_B + 44_B + 450_B + 451_B + 452_B + 453_B + 454_B + 455_B
 + 456_B + 457_B + 458_B + 459_B + 45_B + 460_B + 461_B + 462_B + 463_B
 + 464_B + 465_B + 466_B + 467_B + 468_B + 469_B + 46_B + 470_B + 471_B
 + 472_B + 473_B + 474_B + 475_B + 476_B + 477_B + 478_B + 479_B + 47_B
 + 480_B + 481_B + 482_B + 483_B + 484_B + 485_B + 486_B + 487_B + 488_B
 + 489_B + 48_B + 490_B + 491_B + 492_B + 493_B + 494_B + 495_B + 496_B
 + 497_B + 498_B + 499_B + 49_B + 4_B + 500_B + 501_B + 502_B + 503_B + 504_B
 + 505_B + 506_B + 507_B + 508_B + 509_B + 50_B + 510_B + 511_B + 512_B
 + 513_B + 514_B + 515_B + 516_B + 517_B + 518_B + 519_B + 51_B + 520_B
 + 521_B + 522_B + 523_B + 524_B + 525_B + 526_B + 527_B + 528_B + 529_B
 + 52_B + 530_B + 531_B + 532_B + 533_B + 534_B + 535_B + 536_B + 537_B
 + 538_B + 539_B + 53_B + 540_B + 541_B + 542_B + 543_B + 544_B + 54_B + 55_B
 + 56_B + 57_B + 58_B + 59_B + 5_B + 60_B + 61_B + 62_B + 63_B + 64_B + 65_B
 + 66_B + 67_B + 68_B + 69_B + 6_B + 70_B + 71_B + 72_B + 73_B + 74_B + 75_B
 + 76_B + 77_B + 78_B + 79_B + 7_B + 80_B + 81_B + 82_B + 83_B + 84_B + 85_B
 + 86_B + 87_B + 88_B + 89_B + 8_B + 90_B + 91_B + 92_B + 93_B + 94_B + 95_B
 + 96_B + 97_B + 98_B + 99_B + 9_B = 4
_C4: 111_B + 111_F + 112_B + 112_F + 131_B + 131_F + 132_B + 132_F + 148_B
 + 148_F + 149_B + 149_F + 14_B + 14_F + 168_B + 168_F + 169_B + 169_F + 170_B
 + 170_F + 189_B + 189_F + 190_B + 190_F + 212_B + 212_F + 213_B + 213_F
 + 235_B + 235_F + 236_B + 236_F + 237_B + 237_F + 262_B + 262_F + 263_B
 + 263_F + 264_B + 264_F + 27_B + 27_F + 280_B + 280_F + 281_B + 281_F + 299_B
 + 299_F + 317_B + 317_F + 318_B + 318_F + 319_B + 319_F + 340_B + 340_F
 + 341_B + 341_F + 366_B + 366_F + 367_B + 367_F + 388_B + 388_F + 411_B
 + 411_F + 412_B + 412_F + 413_B + 413_F + 427_B + 427_F + 429_B + 429_F
 + 436_B + 436_F + 449_B + 449_F + 450_B + 450_F + 471_B + 471_F + 474_B
 + 474_F + 479_B + 479_F + 47_B + 47_F + 48_B + 48_F + 494_B + 494_F + 495_B
 + 495_F + 513_B + 513_F + 521_B + 521_F + 526_B + 526_F + 530_B + 530_F
 + 531_B + 531_F + 543_B + 543_F + 72_B + 72_F + 73_B + 73_F + 74_B + 74_F
 + 93_B + 93_F + 94_B + 94_F + 95_B + 95_F = 2
_C5: 103_B + 103_F + 104_B + 104_F + 105_B + 105_F + 106_B + 106_F + 107_B
 + 107_F + 108_B + 108_F + 109_B + 109_F + 10_B + 10_F + 122_B + 122_F + 123_B
 + 123_F + 124_B + 124_F + 125_B + 125_F + 126_B + 126_F + 127_B + 127_F
 + 128_B + 128_F + 141_B + 141_F + 142_B + 142_F + 143_B + 143_F + 144_B
 + 144_F + 145_B + 145_F + 159_B + 159_F + 160_B + 160_F + 161_B + 161_F
 + 162_B + 162_F + 163_B + 163_F + 164_B + 164_F + 165_B + 165_F + 181_B
 + 181_F + 182_B + 182_F + 183_B + 183_F + 184_B + 184_F + 185_B + 185_F
 + 186_B + 186_F + 1_B + 1_F + 202_B + 202_F + 203_B + 203_F + 204_B + 204_F
 + 205_B + 205_F + 206_B + 206_F + 207_B + 207_F + 208_B + 208_F + 209_B
 + 209_F + 223_B + 223_F + 224_B + 224_F + 225_B + 225_F + 226_B + 226_F
 + 227_B + 227_F + 228_B + 228_F + 229_B + 229_F + 22_B + 22_F + 230_B + 230_F
 + 231_B + 231_F + 23_B + 23_F + 24_B + 24_F + 251_B + 251_F + 252_B + 252_F
 + 253_B + 253_F + 254_B + 254_F + 255_B + 255_F + 256_B + 256_F + 257_B
 + 257_F + 258_B + 258_F + 259_B + 259_F + 25_B + 25_F + 272_B + 272_F + 273_B
 + 273_F + 274_B + 274_F + 275_B + 275_F + 276_B + 276_F + 277_B + 277_F
 + 291_B + 291_F + 292_B + 292_F + 293_B + 293_F + 294_B + 294_F + 295_B
 + 295_F + 296_B + 296_F + 297_B + 297_F + 2_B + 2_F + 304_B + 304_F + 305_B
 + 305_F + 306_B + 306_F + 307_B + 307_F + 308_B + 308_F + 309_B + 309_F
 + 310_B + 310_F + 311_B + 311_F + 329_B + 329_F + 330_B + 330_F + 331_B
 + 331_F + 332_B + 332_F + 333_B + 333_F + 334_B + 334_F + 335_B + 335_F
 + 336_B + 336_F + 337_B + 337_F + 353_B + 353_F + 354_B + 354_F + 355_B
 + 355_F + 356_B + 356_F + 357_B + 357_F + 358_B + 358_F + 359_B + 359_F
 + 360_B + 360_F + 361_B + 361_F + 376_B + 376_F + 377_B + 377_F + 378_B
 + 378_F + 379_B + 379_F + 37_B + 37_F + 380_B + 380_F + 381_B + 381_F + 382_B
 + 382_F + 383_B + 383_F + 384_B + 384_F + 38_B + 38_F + 39_B + 39_F + 3_B
 + 3_F + 401_B + 401_F + 402_B + 402_F + 403_B + 403_F + 404_B + 404_F + 405_B
 + 405_F + 406_B + 406_F + 407_B + 407_F + 408_B + 408_F + 40_B + 40_F + 41_B
 + 41_F + 423_B + 423_F + 42_B + 42_F + 433_B + 433_F + 439_B + 439_F + 43_B
 + 43_F + 440_B + 440_F + 444_B + 444_F + 445_B + 445_F + 446_B + 446_F
 + 447_B + 447_F + 452_B + 452_F + 454_B + 454_F + 455_B + 455_F + 458_B
 + 458_F + 459_B + 459_F + 467_B + 467_F + 473_B + 473_F + 475_B + 475_F
 + 477_B + 477_F + 478_B + 478_F + 481_B + 481_F + 484_B + 484_F + 485_B
 + 485_F + 486_B + 486_F + 493_B + 493_F + 498_B + 498_F + 4_B + 4_F + 503_B
 + 503_F + 506_B + 506_F + 511_B + 511_F + 515_B + 515_F + 518_B + 518_F
 + 519_B + 519_F + 529_B + 529_F + 532_B + 532_F + 536_B + 536_F + 542_B
 + 542_F + 544_B + 544_F + 58_B + 58_F + 59_B + 59_F + 5_B + 5_F + 60_B + 60_F
 + 61_B + 61_F + 62_B + 62_F + 63_B + 63_F + 64_B + 64_F + 65_B + 65_F + 66_B
 + 66_F + 6_B + 6_F + 7_B + 7_F + 83_B + 83_F + 84_B + 84_F + 85_B + 85_F
 + 86_B + 86_F + 87_B + 87_F + 88_B + 88_F + 89_B + 89_F + 8_B + 8_F + 9_B
 + 9_F = 5
_C6: 100_B + 100_F + 101_B + 101_F + 102_B + 102_F + 113_B + 113_F + 114_B
 + 114_F + 115_B + 115_F + 116_B + 116_F + 117_B + 117_F + 118_B + 118_F
 + 119_B + 119_F + 120_B + 120_F + 121_B + 121_F + 133_B + 133_F + 134_B
 + 134_F + 135_B + 135_F + 136_B + 136_F + 137_B + 137_F + 138_B + 138_F
 + 139_B + 139_F + 140_B + 140_F + 150_B + 150_F + 151_B + 151_F + 152_B
 + 152_F + 153_B + 153_F + 154_B + 154_F + 155_B + 155_F + 156_B + 156_F
 + 157_B + 157_F + 158_B + 158_F + 15_B + 15_F + 16_B + 16_F + 171_B + 171_F
 + 172_B + 172_F + 173_B + 173_F + 174_B + 174_F + 175_B + 175_F + 176_B
 + 176_F + 177_B + 177_F + 178_B + 178_F + 179_B + 179_F + 17_B + 17_F + 180_B
 + 180_F + 18_B + 18_F + 191_B + 191_F + 192_B + 192_F + 193_B + 193_F + 194_B
 + 194_F + 195_B + 195_F + 196_B + 196_F + 197_B + 197_F + 198_B + 198_F
 + 199_B + 199_F + 19_B + 19_F + 200_B + 200_F + 201_B + 201_F + 20_B + 20_F
 + 214_B + 214_F + 215_B + 215_F + 216_B + 216_F + 217_B + 217_F + 218_B
 + 218_F + 219_B + 219_F + 21_B + 21_F + 220_B + 220_F + 221_B + 221_F + 222_B
 + 222_F + 238_B + 238_F + 239_B + 239_F + 240_B + 240_F + 241_B + 241_F
 + 242_B + 242_F + 243_B + 243_F + 244_B + 244_F + 245_B + 245_F + 246_B
 + 246_F + 247_B + 247_F + 248_B + 248_F + 249_B + 249_F + 250_B + 250_F
 + 265_B + 265_F + 266_B + 266_F + 267_B + 267_F + 268_B + 268_F + 269_B
 + 269_F + 270_B + 270_F + 271_B + 271_F + 282_B + 282_F + 283_B + 283_F
 + 284_B + 284_F + 285_B + 285_F + 286_B + 286_F + 287_B + 287_F + 288_B
 + 288_F + 289_B + 289_F + 28_B + 28_F + 290_B + 290_F + 29_B + 29_F + 300_B
 + 300_F + 301_B + 301_F + 302_B + 302_F + 30_B + 30_F + 31_B + 31_F + 320_B
 + 320_F + 321_B + 321_F + 322_B + 322_F + 323_B + 323_F + 324_B + 324_F
 + 325_B + 325_F + 326_B + 326_F + 327_B + 327_F + 328_B + 328_F + 32_B + 32_F
 + 33_B + 33_F + 342_B + 342_F + 343_B + 343_F + 344_B + 344_F + 345_B + 345_F
 + 346_B + 346_F + 347_B + 347_F + 348_B + 348_F + 349_B + 349_F + 34_B + 34_F
 + 350_B + 350_F + 351_B + 351_F + 352_B + 352_F + 35_B + 35_F + 368_B + 368_F
 + 369_B + 369_F + 36_B + 36_F + 370_B + 370_F + 371_B + 371_F + 372_B + 372_F
 + 373_B + 373_F + 374_B + 374_F + 375_B + 375_F + 389_B + 389_F + 390_B
 + 390_F + 391_B + 391_F + 392_B + 392_F + 393_B + 393_F + 394_B + 394_F
 + 395_B + 395_F + 396_B + 396_F + 397_B + 397_F + 398_B + 398_F + 399_B
 + 399_F + 400_B + 400_F + 414_B + 414_F + 415_B + 415_F + 416_B + 416_F
 + 417_B + 417_F + 418_B + 418_F + 419_B + 419_F + 420_B + 420_F + 421_B
 + 421_F + 422_B + 422_F + 430_B + 430_F + 431_B + 431_F + 432_B + 432_F
 + 435_B + 435_F + 438_B + 438_F + 441_B + 441_F + 442_B + 442_F + 443_B
 + 443_F + 448_B + 448_F + 453_B + 453_F + 456_B + 456_F + 462_B + 462_F
 + 463_B + 463_F + 465_B + 465_F + 469_B + 469_F + 470_B + 470_F + 472_B
 + 472_F + 476_B + 476_F + 480_B + 480_F + 482_B + 482_F + 483_B + 483_F
 + 488_B + 488_F + 489_B + 489_F + 490_B + 490_F + 491_B + 491_F + 492_B
 + 492_F + 497_B + 497_F + 499_B + 499_F + 49_B + 49_F + 500_B + 500_F + 505_B
 + 505_F + 507_B + 507_F + 508_B + 508_F + 50_B + 50_F + 510_B + 510_F + 516_B
 + 516_F + 517_B + 517_F + 51_B + 51_F + 522_B + 522_F + 523_B + 523_F + 524_B
 + 524_F + 525_B + 525_F + 527_B + 527_F + 528_B + 528_F + 52_B + 52_F + 533_B
 + 533_F + 537_B + 537_F + 539_B + 539_F + 53_B + 53_F + 540_B + 540_F + 541_B
 + 541_F + 54_B + 54_F + 55_B + 55_F + 56_B + 56_F + 57_B + 57_F + 75_B + 75_F
 + 76_B + 76_F + 77_B + 77_F + 78_B + 78_F + 79_B + 79_F + 80_B + 80_F + 81_B
 + 81_F + 82_B + 82_F + 96_B + 96_F + 97_B + 97_F + 98_B + 98_F + 99_B + 99_F
 = 5
_C7: 110_B + 110_F + 11_B + 11_F + 129_B + 129_F + 12_B + 12_F + 130_B + 130_F
 + 13_B + 13_F + 146_B + 146_F + 147_B + 147_F + 166_B + 166_F + 167_B + 167_F
 + 187_B + 187_F + 188_B + 188_F + 210_B + 210_F + 211_B + 211_F + 232_B
 + 232_F + 233_B + 233_F + 234_B + 234_F + 260_B + 260_F + 261_B + 261_F
 + 26_B + 26_F + 278_B + 278_F + 279_B + 279_F + 298_B + 298_F + 303_B + 303_F
 + 312_B + 312_F + 313_B + 313_F + 314_B + 314_F + 315_B + 315_F + 316_B
 + 316_F + 338_B + 338_F + 339_B + 339_F + 362_B + 362_F + 363_B + 363_F
 + 364_B + 364_F + 365_B + 365_F + 385_B + 385_F + 386_B + 386_F + 387_B
 + 387_F + 409_B + 409_F + 410_B + 410_F + 428_B + 428_F + 434_B + 434_F
 + 437_B + 437_F + 44_B + 44_F + 451_B + 451_F + 457_B + 457_F + 45_B + 45_F
 + 460_B + 460_F + 461_B + 461_F + 464_B + 464_F + 466_B + 466_F + 468_B
 + 468_F + 46_B + 46_F + 487_B + 487_F + 496_B + 496_F + 501_B + 501_F + 502_B
 + 502_F + 504_B + 504_F + 509_B + 509_F + 512_B + 512_F + 514_B + 514_F
 + 520_B + 520_F + 534_B + 534_F + 535_B + 535_F + 538_B + 538_F + 67_B + 67_F
 + 68_B + 68_F + 69_B + 69_F + 70_B + 70_F + 71_B + 71_F + 90_B + 90_F + 91_B
 + 91_F + 92_B + 92_F = 3
Binaries
100_B
100_F
101_B
101_F
102_B
102_F
103_B
103_F
104_B
104_F
105_B
105_F
106_B
106_F
107_B
107_F
108_B
108_F
109_B
109_F
10_B
10_F
110_B
110_F
111_B
111_F
112_B
112_F
113_B
113_F
114_B
114_F
115_B
115_F
116_B
116_F
117_B
117_F
118_B
118_F
119_B
119_F
11_B
11_F
120_B
120_F
121_B
121_F
122_B
122_F
123_B
123_F
124_B
124_F
125_B
125_F
126_B
126_F
127_B
127_F
128_B
128_F
129_B
129_F
12_B
12_F
130_B
130_F
131_B
131_F
132_B
132_F
133_B
133_F
134_B
134_F
135_B
135_F
136_B
136_F
137_B
137_F
138_B
138_F
139_B
139_F
13_B
13_F
140_B
140_F
141_B
141_F
142_B
142_F
143_B
143_F
144_B
144_F
145_B
145_F
146_B
146_F
147_B
147_F
148_B
148_F
149_B
149_F
14_B
14_F
150_B
150_F
151_B
151_F
152_B
152_F
153_B
153_F
154_B
154_F
155_B
155_F
156_B
156_F
157_B
157_F
158_B
158_F
159_B
159_F
15_B
15_F
160_B
160_F
161_B
161_F
162_B
162_F
163_B
163_F
164_B
164_F
165_B
165_F
166_B
166_F
167_B
167_F
168_B
168_F
169_B
169_F
16_B
16_F
170_B
170_F
171_B
171_F
172_B
172_F
173_B
173_F
174_B
174_F
175_B
175_F
176_B
176_F
177_B
177_F
178_B
178_F
179_B
179_F
17_B
17_F
180_B
180_F
181_B
181_F
182_B
182_F
183_B
183_F
184_B
184_F
185_B
185_F
186_B
186_F
187_B
187_F
188_B
188_F
189_B
189_F
18_B
18_F
190_B
190_F
191_B
191_F
192_B
192_F
193_B
193_F
194_B
194_F
195_B
195_F
196_B
196_F
197_B
197_F
198_B
198_F
199_B
199_F
19_B
19_F
1_B
1_F
200_B
200_F
201_B
201_F
202_B
202_F
203_B
203_F
204_B
204_F
205_B
205_F
206_B
206_F
207_B
207_F
208_B
208_F
209_B
209_F
20_B
20_F
210_B
210_F
211_B
211_F
212_B
212_F
213_B
213_F
214_B
214_F
215_B
215_F
216_B
216_F
217_B
217_F
218_B
218_F
219_B
219_F
21_B
21_F
220_B
220_F
221_B
221_F
222_B
222_F
223_B
223_F
224_B
224_F
225_B
225_F
226_B
226_F
227_B
227_F
228_B
228_F
229_B
229_F
22_B
22_F
230_B
230_F
231_B
231_F
232_B
232_F
233_B
233_F
234_B
234_F
235_B
235_F
236_B
236_F
237_B
237_F
238_B
238_F
239_B
239_F
23_B
23_F
240_B
240_F
241_B
241_F
242_B
242_F
243_B
243_F
244_B
244_F
245_B
245_F
246_B
246_F
247_B
247_F
248_B
248_F
249_B
249_F
24_B
24_F
250_B
250_F
251_B
251_F
252_B
252_F
253_B
253_F
254_B
254_F
255_B
255_F
256_B
256_F
257_B
257_F
258_B
258_F
259_B
259_F
25_B
25_F
260_B
260_F
261_B
261_F
262_B
262_F
263_B
263_F
264_B
264_F
265_B
265_F
266_B
266_F
267_B
267_F
268_B
268_F
269_B
269_F
26_B
26_F
270_B
270_F
271_B
271_F
272_B
272_F
273_B
273_F
274_B
274_F
275_B
275_F
276_B
276_F
277_B
277_F
278_B
278_F
279_B
279_F
27_B
27_F
280_B
280_F
281_B
281_F
282_B
282_F
283_B
283_F
284_B
284_F
285_B
285_F
286_B
286_F
287_B
287_F
288_B
288_F
289_B
289_F
28_B
28_F
290_B
290_F
291_B
291_F
292_B
292_F
293_B
293_F
294_B
294_F
295_B
295_F
296_B
296_F
297_B
297_F
298_B
298_F
299_B
299_F
29_B
29_F
2_B
2_F
300_B
300_F
301_B
301_F
302_B
302_F
303_B
303_F
304_B
304_F
305_B
305_F
306_B
306_F
307_B
307_F
308_B
308_F
309_B
309_F
30_B
30_F
310_B
310_F
311_B
311_F
312_B
312_F
313_B
313_F
314_B
314_F
315_B
315_F
316_B
316_F
317_B
317_F
318_B
318_F
319_B
319_F
31_B
31_F
320_B
320_F
321_B
321_F
322_B
322_F
323_B
323_F
324_B
324_F
325_B
325_F
326_B
326_F
327_B
327_F
328_B
328_F
329_B
329_F
32_B
32_F
330_B
330_F
331_B
331_F
332_B
332_F
333_B
333_F
334_B
334_F
335_B
335_F
336_B
336_F
337_B
337_F
338_B
338_F
339_B
339_F
33_B
33_F
340_B
340_F
341_B
341_F
342_B
342_F
343_B
343_F
344_B
344_F
345_B
345_F
346_B
346_F
347_B
347_F
348_B
348_F
349_B
349_F
34_B
34_F
350_B
350_F
351_B
351_F
352_B
352_F
353_B
353_F
354_B
354_F
355_B
355_F
356_B
356_F
357_B
357_F
358_B
358_F
359_B
359_F
35_B
35_F
360_B
360_F
361_B
361_F
362_B
362_F
363_B
363_F
364_B
364_F
365_B
365_F
366_B
366_F
367_B
367_F
368_B
368_F
369_B
369_F
36_B
36_F
370_B
370_F
371_B
371_F
372_B
372_F
373_B
373_F
374_B
374_F
375_B
375_F
376_B
376_F
377_B
377_F
378_B
378_F
379_B
379_F
37_B
37_F
380_B
380_F
381_B
381_F
382_B
382_F
383_B
383_F
384_B
384_F
385_B
385_F
386_B
386_F
387_B
387_F
388_B
388_F
389_B
389_F
38_B
38_F
390_B
390_F
391_B
391_F
392_B
392_F
393_B
393_F
394_B
394_F
395_B
395_F
396_B
396_F
397_B
397_F
398_B
398_F
399_B
399_F
39_B
39_F
3_B
3_F
400_B
400_F
401_B
401_F
402_B
402_F
403_B
403_F
404_B
404_F
405_B
405_F
406_B
406_F
407_B
407_F
408_B
408_F
409_B
409_F
40_B
40_F
410_B
410_F
411_B
411_F
412_B
412_F
413_B
413_F
414_B
414_F
415_B
415_F
416_B
416_F
417_B
417_F
418_B
418_F
419_B
419_F
41_B
41_F
420_B
420_F
421_B
421_F
422_B
422_F
423_B
423_F
427_B
427_F
428_B
428_F
429_B
429_F
42_B
42_F
430_B
430_F
431_B
431_F
432_B
432_F
433_B
433_F
434_B
434_F
435_B
435_F
436_B
436_F
437_B
437_F
438_B
438_F
439_B
439_F
43_B
43_F
440_B
440_F
441_B
441_F
442_B
442_F
443_B
443_F
444_B
444_F
445_B
445_F
446_B
446_F
447_B
447_F
448_B
448_F
449_B
449_F
44_B
44_F
450_B
450_F
451_B
451_F
452_B
452_F
453_B
453_F
454_B
454_F
455_B
455_F
456_B
456_F
457_B
457_F
458_B
458_F
459_B
459_F
45_B
45_F
460_B
460_F
461_B
461_F
462_B
462_F
463_B
463_F
464_B
464_F
465_B
465_F
466_B
466_F
467_B
467_F
468_B
468_F
469_B
469_F
46_B
46_F
470_B
470_F
471_B
471_F
472_B
472_F
473_B
473_F
474_B
474_F
475_B
475_F
476_B
476_F
477_B
477_F
478_B
478_F
479_B
479_F
47_B
47_F
480_B
480_F
481_B
481_F
482_B
482_F
483_B
483_F
484_B
484_F
485_B
485_F
486_B
486_F
487_B
487_F
488_B
488_F
489_B
489_F
48_B
48_F
490_B
490_F
491_B
491_F
492_B
492_F
493_B
493_F
494_B
494_F
495_B
495_F
496_B
496_F
497_B
497_F
498_B
498_F
499_B
499_F
49_B
49_F
4_B
4_F
500_B
500_F
501_B
501_F
502_B
502_F
503_B
503_F
504_B
504_F
505_B
505_F
506_B
506_F
507_B
507_F
508_B
508_F
509_B
509_F
50_B
50_F
510_B
510_F
511_B
511_F
512_B
512_F
513_B
513_F
514_B
514_F
515_B
515_F
516_B
516_F
517_B
517_F
518_B
518_F
519_B
519_F
51_B
51_F
520_B
520_F
521_B
521_F
522_B
522_F
523_B
523_F
524_B
524_F
525_B
525_F
526_B
526_F
527_B
527_F
528_B
528_F
529_B
529_F
52_B
52_F
530_B
530_F
531_B
531_F
532_B
532_F
533_B
533_F
534_B
534_F
535_B
535_F
536_B
536_F
537_B
537_F
538_B
538_F
539_B
539_F
53_B
53_F
540_B
540_F
541_B
541_F
542_B
542_F
543_B
543_F
544_B
544_F
54_B
54_F
55_B
55_F
56_B
56_F
57_B
57_F
58_B
58_F
59_B
59_F
5_B
5_F
60_B
60_F
61_B
61_F
62_B
62_F
63_B
63_F
64_B
64_F
65_B
65_F
66_B
66_F
67_B
67_F
68_B
68_F
69_B
69_F
6_B
6_F
70_B
70_F
71_B
71_F
72_B
72_F
73_B
73_F
74_B
74_F
75_B
75_F
76_B
76_F
77_B
77_F
78_B
78_F
79_B
79_F
7_B
7_F
80_B
80_F
81_B
81_F
82_B
82_F
83_B
83_F
84_B
84_F
85_B
85_F
86_B
86_F
87_B
87_F
88_B
88_F
89_B
89_F
8_B
8_F
90_B
90_F
91_B
91_F
92_B
92_F
93_B
93_F
94_B
94_F
95_B
95_F
96_B
96_F
97_B
97_F
98_B
98_F
99_B
99_F
9_B
9_F
End
